* #variable= 108 #constraint= 36 #product= 216 sizeproduct= 432
min: +1 x1 x4 +1 x1 x16 +1 x1 x19 +1 x1 x91 +1 x2 x5 +1 x2 x17 +1 x2 x20 +1 x2 x92 +1 x3 x6 +1 x3 x18 +1 x3 x21 +1 x3 x93 +1 x4 x7 +1 x4 x22 +1 x4 x94 +1 x5 x8 +1 x5 x23 +1 x5 x95 +1 x6 x9 +1 x6 x24 +1 x6 x96 +1 x7 x10 -1 x7 x25 +1 x7 x97 +1 x8 x11 -1 x8 x26 +1 x8 x98 +1 x9 x12 -1 x9 x27 +1 x9 x99 -1 x10 x13 +1 x10 x28 -1 x10 x100 -1 x11 x14 +1 x11 x29 -1 x11 x101 -1 x12 x15 +1 x12 x30 -1 x12 x102 +1 x13 x16 -1 x13 x31 +1 x13 x103 +1 x14 x17 -1 x14 x32 +1 x14 x104 +1 x15 x18 -1 x15 x33 +1 x15 x105 +1 x16 x34 -1 x16 x106 +1 x17 x35 -1 x17 x107 +1 x18 x36 -1 x18 x108 -1 x19 x22 +1 x19 x34 +1 x19 x37 -1 x20 x23 +1 x20 x35 +1 x20 x38 -1 x21 x24 +1 x21 x36 +1 x21 x39 -1 x22 x25 -1 x22 x40 -1 x23 x26 -1 x23 x41 -1 x24 x27 -1 x24 x42 -1 x25 x28 +1 x25 x43 -1 x26 x29 +1 x26 x44 -1 x27 x30 +1 x27 x45 -1 x28 x31 -1 x28 x46 -1 x29 x32 -1 x29 x47 -1 x30 x33 -1 x30 x48 -1 x31 x34 +1 x31 x49 -1 x32 x35 +1 x32 x50 -1 x33 x36 +1 x33 x51 -1 x34 x52 -1 x35 x53 -1 x36 x54 +1 x37 x40 -1 x37 x52 -1 x37 x55 +1 x38 x41 -1 x38 x53 -1 x38 x56 +1 x39 x42 -1 x39 x54 -1 x39 x57 +1 x40 x43 +1 x40 x58 +1 x41 x44 +1 x41 x59 +1 x42 x45 +1 x42 x60 -1 x43 x46 -1 x43 x61 -1 x44 x47 -1 x44 x62 -1 x45 x48 -1 x45 x63 +1 x46 x49 -1 x46 x64 +1 x47 x50 -1 x47 x65 +1 x48 x51 -1 x48 x66 +1 x49 x52 -1 x49 x67 +1 x50 x53 -1 x50 x68 +1 x51 x54 -1 x51 x69 -1 x52 x70 -1 x53 x71 -1 x54 x72 +1 x55 x58 +1 x55 x70 -1 x55 x73 +1 x56 x59 +1 x56 x71 -1 x56 x74 +1 x57 x60 +1 x57 x72 -1 x57 x75 -1 x58 x61 -1 x58 x76 -1 x59 x62 -1 x59 x77 -1 x60 x63 -1 x60 x78 -1 x61 x64 -1 x61 x79 -1 x62 x65 -1 x62 x80 -1 x63 x66 -1 x63 x81 -1 x64 x67 -1 x64 x82 -1 x65 x68 -1 x65 x83 -1 x66 x69 -1 x66 x84 +1 x67 x70 +1 x67 x85 +1 x68 x71 +1 x68 x86 +1 x69 x72 +1 x69 x87 +1 x70 x88 +1 x71 x89 +1 x72 x90 +1 x73 x76 -1 x73 x88 +1 x73 x91 +1 x74 x77 -1 x74 x89 +1 x74 x92 +1 x75 x78 -1 x75 x90 +1 x75 x93 +1 x76 x79 +1 x76 x94 +1 x77 x80 +1 x77 x95 +1 x78 x81 +1 x78 x96 -1 x79 x82 -1 x79 x97 -1 x80 x83 -1 x80 x98 -1 x81 x84 -1 x81 x99 +1 x82 x85 -1 x82 x100 +1 x83 x86 -1 x83 x101 +1 x84 x87 -1 x84 x102 -1 x85 x88 -1 x85 x103 -1 x86 x89 -1 x86 x104 -1 x87 x90 -1 x87 x105 -1 x88 x106 -1 x89 x107 -1 x90 x108 +1 x91 x94 +1 x91 x106 +1 x92 x95 +1 x92 x107 +1 x93 x96 +1 x93 x108 +1 x94 x97 +1 x95 x98 +1 x96 x99 -1 x97 x100 -1 x98 x101 -1 x99 x102 -1 x100 x103 -1 x101 x104 -1 x102 x105 +1 x103 x106 +1 x104 x107 +1 x105 x108 ;
+1 x1 +1 x2 +1 x3 = 1 ;
+1 x4 +1 x5 +1 x6 = 1 ;
+1 x7 +1 x8 +1 x9 = 1 ;
+1 x10 +1 x11 +1 x12 = 1 ;
+1 x13 +1 x14 +1 x15 = 1 ;
+1 x16 +1 x17 +1 x18 = 1 ;
+1 x19 +1 x20 +1 x21 = 1 ;
+1 x22 +1 x23 +1 x24 = 1 ;
+1 x25 +1 x26 +1 x27 = 1 ;
+1 x28 +1 x29 +1 x30 = 1 ;
+1 x31 +1 x32 +1 x33 = 1 ;
+1 x34 +1 x35 +1 x36 = 1 ;
+1 x37 +1 x38 +1 x39 = 1 ;
+1 x40 +1 x41 +1 x42 = 1 ;
+1 x43 +1 x44 +1 x45 = 1 ;
+1 x46 +1 x47 +1 x48 = 1 ;
+1 x49 +1 x50 +1 x51 = 1 ;
+1 x52 +1 x53 +1 x54 = 1 ;
+1 x55 +1 x56 +1 x57 = 1 ;
+1 x58 +1 x59 +1 x60 = 1 ;
+1 x61 +1 x62 +1 x63 = 1 ;
+1 x64 +1 x65 +1 x66 = 1 ;
+1 x67 +1 x68 +1 x69 = 1 ;
+1 x70 +1 x71 +1 x72 = 1 ;
+1 x73 +1 x74 +1 x75 = 1 ;
+1 x76 +1 x77 +1 x78 = 1 ;
+1 x79 +1 x80 +1 x81 = 1 ;
+1 x82 +1 x83 +1 x84 = 1 ;
+1 x85 +1 x86 +1 x87 = 1 ;
+1 x88 +1 x89 +1 x90 = 1 ;
+1 x91 +1 x92 +1 x93 = 1 ;
+1 x94 +1 x95 +1 x96 = 1 ;
+1 x97 +1 x98 +1 x99 = 1 ;
+1 x100 +1 x101 +1 x102 = 1 ;
+1 x103 +1 x104 +1 x105 = 1 ;
+1 x106 +1 x107 +1 x108 = 1 ;
